File : Instances/p63
Used 68s
25279

0 0 1 0 1 0 1 0 0 0 0 0 0 1 0 0 0 1 1 0 1 0 0 1 1 1 0 0 1 0 
18 6 2 24 2 6 2 28 18 28 4 28 13 13 28 18 13 20 24 24 18 24 23 24 23 18 24 28 4 2 6 4 4 24 28 6 20 20 24 2 18 20 6 4 20 4 13 2 6 17 24 24 24 24 20 6 25 20 18 25 4 17 18 20 13 25 23 17 28 25 18 6 6 20 23 23 20 23 20 24 23 17 20 25 4 13 6 23 24 25 28 6 25 25 2 13 28 6 17 28 28 2 25 18 4 17 4 24 18 13 6 4 18 6 6 20 28 25 17 13 20 25 17 4 4 24 2 28 4 17 28 24 25 20 23 20 13 13 28 20 6 18 28 25 25 2 24 2 18 25 24 17 23 17 13 28 2 2 13 13 13 28 23 24 23 18 23 4 13 2 23 20 28 17 4 2 17 20 4 20 2 2 2 6 25 20 28 23 17 24 2 2 6 4 25 6 25 2 23 6 
